unknown
(model
; cardinality of BoundSet is 8
(declare-sort BoundSet 0)
; rep: @uc_BoundSet_0
; rep: @uc_BoundSet_1
; rep: @uc_BoundSet_2
; rep: @uc_BoundSet_3
; rep: @uc_BoundSet_4
; rep: @uc_BoundSet_5
; rep: @uc_BoundSet_6
; rep: @uc_BoundSet_7
; cardinality of UnboundSet is 1
(declare-sort UnboundSet 0)
(declare-fun groundTerm_9 () UnboundSet)
(define-fun IsDusty ((BOUND_VARIABLE_537 BoundSet)) Bool true)
(define-fun RunsAlongPath ((BOUND_VARIABLE_544 BoundSet) (BOUND_VARIABLE_545 BoundSet)) Bool true)
(define-fun RunsThroughGrass ((BOUND_VARIABLE_544 BoundSet) (BOUND_VARIABLE_545 BoundSet)) Bool true)
(define-fun IsRunning ((BOUND_VARIABLE_537 BoundSet)) Bool true)
(define-fun IsOutside ((BOUND_VARIABLE_537 BoundSet)) Bool false)
)
sat
(model
; cardinality of BoundSet is 1
(declare-sort BoundSet 0)
; rep: @uc_BoundSet_0
; cardinality of UnboundSet is 1
(declare-sort UnboundSet 0)
(declare-fun groundTerm_12 () UnboundSet)
(define-fun IsDusty ((BOUND_VARIABLE_573 BoundSet)) Bool true)
(define-fun RunsAlongPath ((BOUND_VARIABLE_580 BoundSet) (BOUND_VARIABLE_581 BoundSet)) Bool true)
(define-fun RunsThroughGrass ((BOUND_VARIABLE_580 BoundSet) (BOUND_VARIABLE_581 BoundSet)) Bool true)
(define-fun IsRunning ((BOUND_VARIABLE_573 BoundSet)) Bool true)
(define-fun IsOutside ((BOUND_VARIABLE_573 BoundSet)) Bool false)
)
